%chk=/home/boittier/MDCM/nms_sampling/butane_geom.xyz.dir/butane_opt_2566.chk
%nproc=8
%mem=16000MB
#p B2PLYPD3/Def2QZVP 

butane_opt

0 1
C  -3.927532   0.301607   0.219947
C  -2.668862  -0.610640  -0.203635
H  -4.945048  -0.483195   0.805105
H  -4.215978   1.145809  -0.792206
H  -3.564373   0.728482   0.900019
C  -1.436622   0.105547  -0.137022
H  -2.636943  -1.786760  -1.316806
H  -2.408282  -0.891513   0.521478
C  -0.179877  -0.671230   0.189766
H  -1.557228   0.634049   0.577901
H  -1.112178   1.090448  -1.252906
H  -0.720550  -1.203688   1.193274
H   0.728030  -0.091006   0.344663
H  -0.001310  -1.128467  -0.395580

