%chk=/home/boittier/MDCM/nms_sampling/butane_geom.xyz.dir/butane_opt_373.chk
%nproc=8
%mem=16000MB
#p B2PLYPD3/Def2QZVP 

butane_opt

0 1
C  -3.842246   0.269224   0.107682
C  -2.783222  -0.563501  -0.002704
H  -4.876273  -0.513165  -0.060141
H  -3.988556   0.686614  -0.557032
H  -3.753121   0.822986   0.999884
C  -1.439062   0.200912  -0.129829
H  -2.581110  -1.223531  -0.884953
H  -2.787463  -1.107878   0.741009
C  -0.146947  -0.751064   0.135616
H  -1.638487   0.696586   0.493392
H  -1.348269   1.021099  -1.058912
H  -0.262569  -1.062139   0.931542
H   0.922803  -0.063938   0.395483
H  -0.159706  -1.628587  -0.901992
