%chk=/home/boittier/MDCM/nms_sampling/butane_geom.xyz.dir/butane_opt_2603.chk
%nproc=8
%mem=16000MB
#p B2PLYPD3/Def2QZVP 

butane_opt

0 1
C  -3.951201   0.188557   0.143198
C  -2.708592  -0.523140  -0.083106
H  -5.165309  -0.701627   0.237195
H  -4.070290   0.653445  -0.667833
H  -4.015146   1.157150   1.178578
C  -1.403369   0.235443  -0.148269
H  -3.001284  -1.059732  -0.970928
H  -2.443257  -1.191585   0.875362
C  -0.103440  -0.754051   0.178212
H  -1.664459   0.689851   0.425418
H  -1.189114   1.197978  -1.380821
H  -0.197873  -1.062798   0.846512
H   0.553098  -0.194138   0.641033
H   0.263940  -1.826471  -0.842697
