%chk=/home/boittier/MDCM/nms_sampling/butane_geom.xyz.dir/butane_opt_395.chk
%nproc=8
%mem=16000MB
#p B2PLYPD3/Def2QZVP 

butane_opt

0 1
C  -3.788373   0.229716  -0.155516
C  -2.762753  -0.582908   0.290518
H  -4.721468  -0.534377  -0.693432
H  -3.559781   0.554494  -0.914254
H  -4.358313   1.202582   0.899481
C  -1.452529   0.218150   0.146534
H  -2.681689  -0.929051  -0.463122
H  -2.638795  -1.205210   1.092932
C  -0.218309  -0.738472  -0.087000
H  -1.305341   0.884932   0.907150
H  -1.545346   0.967098  -0.782187
H   0.103104  -1.199451   0.619590
H   0.720941  -0.186170  -0.299670
H  -0.334297  -1.603784  -1.252731

