%chk=/home/boittier/MDCM/nms_sampling/butane_geom.xyz.dir/butane_opt_1052.chk
%nproc=8
%mem=16000MB
#p B2PLYPD3/Def2QZVP 

butane_opt

0 1
C  -3.875101   0.199685  -0.023613
C  -2.693789  -0.521451   0.102892
H  -5.020176  -0.472486  -0.256473
H  -3.475791   0.497718  -0.846804
H  -3.905048   1.188952   1.088214
C  -1.432377   0.227078   0.059384
H  -2.747581  -1.180995  -0.676329
H  -3.130099  -0.963258   0.965330
C  -0.162191  -0.801198  -0.009053
H  -1.520128   0.735452   0.685709
H  -1.640475   1.176373  -0.973579
H  -0.179090  -1.281580   0.876012
H   0.830542  -0.053697  -0.153680
H  -0.245869  -1.410128  -0.770734

