%chk=/home/boittier/MDCM/nms_sampling/butane_geom.xyz.dir/butane_opt_1362.chk
%nproc=8
%mem=16000MB
#p B2PLYPD3/Def2QZVP 

butane_opt

0 1
C  -3.894283   0.210876   0.109817
C  -2.810595  -0.570721  -0.079558
H  -4.691160  -0.310624   0.378270
H  -4.160335   1.002229  -1.007088
H  -3.630789   0.606954   0.795824
C  -1.430445   0.265997  -0.003934
H  -2.855183  -1.380022  -1.010110
H  -2.758431  -1.081504   0.719766
C  -0.088622  -0.765990   0.112814
H  -1.307889   0.897913   0.692270
H  -1.465949   1.245247  -1.166864
H  -0.135298  -1.282430   0.991486
H   0.735895  -0.329837   0.196592
H  -0.044066  -1.541673  -0.836237
