%chk=/home/boittier/MDCM/nms_sampling/butane_geom.xyz.dir/butane_opt_1322.chk
%nproc=8
%mem=16000MB
#p B2PLYPD3/Def2QZVP 

butane_opt

0 1
C  -3.901677   0.365512  -0.107070
C  -2.641375  -0.730301   0.092048
H  -4.784090  -0.272267   0.469062
H  -4.064511   1.444417  -1.335674
H  -3.723057   0.508600   0.363874
C  -1.401498   0.125277   0.168075
H  -2.600826  -1.238614  -0.631312
H  -2.729711  -1.561926   1.192506
C  -0.261796  -0.588126  -0.056912
H  -1.187029   1.012758   1.357947
H  -1.472407   0.549663  -0.514103
H  -0.231800  -1.125313   0.774019
H   0.708112  -0.027930  -0.266599
H  -0.517705  -1.788782  -1.229124

