%chk=/home/boittier/MDCM/nms_sampling/butane_geom.xyz.dir/butane_opt_2628.chk
%nproc=8
%mem=16000MB
#p B2PLYPD3/Def2QZVP 

butane_opt

0 1
C  -4.034490   0.293149  -0.151586
C  -2.718981  -0.625945   0.192700
H  -5.016976  -0.319953  -0.232215
H  -3.834139   1.134428  -1.313561
H  -4.317995   0.765553   0.542880
C  -1.297545   0.126136   0.240481
H  -2.454036  -1.179245  -0.597595
H  -2.862202  -1.291075   1.125822
C  -0.122455  -0.664791  -0.139782
H  -1.168696   1.194856   1.440893
H  -1.470458   0.439305  -0.254646
H   0.173376  -1.437146   0.863078
H   0.723900  -0.325359  -1.060482
H  -0.663693  -1.004201  -0.791899
