%chk=/home/boittier/MDCM/nms_sampling/butane_geom.xyz.dir/butane_opt_670.chk
%nproc=8
%mem=16000MB
#p B2PLYPD3/Def2QZVP 

butane_opt

0 1
C  -3.884355   0.316773   0.196899
C  -2.684105  -0.698107  -0.185776
H  -4.633881  -0.160521   0.703988
H  -4.192566   1.310503  -1.156142
H  -3.837304   0.564453   0.785436
C  -1.447202   0.164622  -0.100594
H  -2.764448  -1.600062  -1.210058
H  -2.372539  -1.255406   0.781392
C  -0.223272  -0.651515   0.163262
H  -1.464057   0.868072   0.795059
H  -1.384614   0.657125  -0.927407
H  -0.285610  -1.286510   1.061726
H   0.859671   0.087730   0.284008
H  -0.116697  -1.157520  -0.583306

