%chk=/home/boittier/MDCM/nms_sampling/butane_geom.xyz.dir/butane_opt_1662.chk
%nproc=8
%mem=16000MB
#p B2PLYPD3/Def2QZVP 

butane_opt

0 1
C  -3.959785   0.247756   0.255439
C  -2.734952  -0.598094  -0.149851
H  -5.004414  -0.485038   0.189911
H  -4.166178   0.786309  -0.551760
H  -3.787688   0.681194   1.008450
C  -1.452686   0.274408  -0.238092
H  -3.106736  -1.348842  -1.248541
H  -2.593766  -1.000769   0.584537
C  -0.036728  -0.750242   0.229699
H  -1.496808   0.540860   0.366316
H  -1.404499   1.180668  -1.295503
H  -0.404602  -1.140122   1.067318
H   0.742637  -0.086723   0.753662
H   0.425552  -1.732103  -0.643841
