%chk=/home/boittier/MDCM/nms_sampling/butane_geom.xyz.dir/butane_opt_1001.chk
%nproc=8
%mem=16000MB
#p B2PLYPD3/Def2QZVP 

butane_opt

0 1
C  -3.832074   0.190896   0.099257
C  -2.748490  -0.500070  -0.140875
H  -4.675034  -0.362181   0.019321
H  -4.172726   0.522428  -0.561444
H  -3.492520   0.963080   1.027769
C  -1.496517   0.223994  -0.007208
H  -2.723155  -1.301775  -0.998359
H  -2.625555  -1.232279   0.875747
C  -0.172685  -0.752580   0.105195
H  -1.542276   0.900984   0.905340
H  -1.553926   0.909819  -1.018340
H   0.093267  -1.949015   1.343090
H   0.736019  -0.018454  -0.370892
H  -0.096662  -0.824293  -0.400882
