%chk=/home/boittier/MDCM/nms_sampling/butane_geom.xyz.dir/butane_opt_174.chk
%nproc=8
%mem=16000MB
#p B2PLYPD3/Def2QZVP 

butane_opt

0 1
C  -3.995247   0.304373  -0.091959
C  -2.669546  -0.692774   0.187895
H  -4.842759  -0.322574  -0.159628
H  -3.800220   0.831318  -0.931812
H  -4.254531   1.120618   0.836641
C  -1.391765   0.158578   0.081693
H  -2.697875  -1.332138  -0.670096
H  -2.722137  -1.269832   1.089149
C  -0.142899  -0.642308  -0.069396
H  -1.161489   0.952266   0.986717
H  -1.494824   0.847685  -0.870328
H  -0.188272  -1.231834   0.845810
H   0.684508  -0.116520   0.035489
H  -0.159650  -1.506240  -1.002026

