%chk=/home/boittier/MDCM/nms_sampling/butane_geom.xyz.dir/butane_opt_1279.chk
%nproc=8
%mem=16000MB
#p B2PLYPD3/Def2QZVP 

butane_opt

0 1
C  -4.013617   0.201999  -0.134083
C  -2.758771  -0.539552   0.181822
H  -4.922005  -0.361729  -0.495871
H  -3.604532   0.809370  -1.117569
H  -4.214874   0.869184   0.721727
C  -1.363859   0.214429   0.241718
H  -2.599963  -0.938815  -0.471676
H  -2.765029  -1.215046   1.126120
C  -0.093152  -0.758930  -0.104924
H  -1.154165   0.964142   1.062368
H  -1.513964   0.830418  -0.634600
H   0.390142  -1.315124   0.737746
H   0.629153  -0.151228  -0.806483
H  -0.474822  -1.420764  -0.908596

