%chk=/home/boittier/MDCM/nms_sampling/h2o_geom.xyz.dir/h2o_1543.chk
%nproc=8
%mem=16000MB
#p B2PLYPD3/Def2QZVP 

h2o

0 1
O  -5.326605  -0.765821   0.925384
H  -4.368927  -0.643873   0.888907
H  -5.609308   0.081057   0.709706
