%chk=/home/boittier/MDCM/nms_sampling/h2o_geom.xyz.dir/h2o_1272.chk
%nproc=8
%mem=16000MB
#p B2PLYPD3/Def2QZVP 

h2o

0 1
O  -5.326605  -0.762306   0.922745
H  -4.368927  -0.687353   0.888409
H  -5.609308   0.068285   0.752402
