%chk=/home/boittier/MDCM/nms_sampling/h2o_geom.xyz.dir/h2o_214.chk
%nproc=8
%mem=16000MB
#p B2PLYPD3/Def2QZVP 

h2o

0 1
O  -5.326605  -0.765306   0.922183
H  -4.368927  -0.724669   0.911989
H  -5.609308   0.153609   0.739118
