%chk=/home/boittier/MDCM/nms_sampling/h2o_geom.xyz.dir/h2o_516.chk
%nproc=8
%mem=16000MB
#p B2PLYPD3/Def2QZVP 

h2o

0 1
O  -5.326605  -0.762947   0.923110
H  -4.368927  -0.714865   0.889831
H  -5.609308   0.106065   0.745939

