%chk=/home/boittier/MDCM/nms_sampling/h2o_geom.xyz.dir/h2o_1194.chk
%nproc=8
%mem=16000MB
#p B2PLYPD3/Def2QZVP 

h2o

0 1
O  -5.326605  -0.765549   0.924839
H  -4.368927  -0.724043   0.892432
H  -5.609308   0.156876   0.716572
