%chk=/home/boittier/MDCM/nms_sampling/h2o_geom.xyz.dir/h2o_1215.chk
%nproc=8
%mem=16000MB
#p B2PLYPD3/Def2QZVP 

h2o

0 1
O  -5.326605  -0.767304   0.916566
H  -4.368927  -0.718788   0.968937
H  -5.609308   0.179699   0.771517

