%chk=/home/boittier/MDCM/nms_sampling/h2o_geom.xyz.dir/h2o_1237.chk
%nproc=8
%mem=16000MB
#p B2PLYPD3/Def2QZVP 

h2o

0 1
O  -5.326605  -0.767181   0.912228
H  -4.368927  -0.700200   1.002373
H  -5.609308   0.159134   0.806471

