%chk=/home/boittier/MDCM/nms_sampling/h2o_geom.xyz.dir/h2o_498.chk
%nproc=8
%mem=16000MB
#p B2PLYPD3/Def2QZVP 

h2o

0 1
O  -5.326605  -0.765332   0.922903
H  -4.368927  -0.693274   0.906088
H  -5.609308   0.122625   0.732903

