%chk=/home/boittier/MDCM/nms_sampling/h2o_geom.xyz.dir/h2o_789.chk
%nproc=8
%mem=16000MB
#p B2PLYPD3/Def2QZVP 

h2o

0 1
O  -5.326605  -0.766221   0.917956
H  -4.368927  -0.759422   0.951618
H  -5.609308   0.203008   0.767501

