%chk=/home/boittier/MDCM/nms_sampling/h2o_geom.xyz.dir/h2o_901.chk
%nproc=8
%mem=16000MB
#p B2PLYPD3/Def2QZVP 

h2o

0 1
O  -5.326605  -0.762007   0.916147
H  -4.368927  -0.750003   0.939595
H  -5.609308   0.126161   0.807253
