%chk=/home/boittier/MDCM/nms_sampling/h2o_geom.xyz.dir/h2o_1221.chk
%nproc=8
%mem=16000MB
#p B2PLYPD3/Def2QZVP 

h2o

0 1
O  -5.326605  -0.766864   0.922293
H  -4.368927  -0.646617   0.919953
H  -5.609308   0.100480   0.727945
