%chk=/home/boittier/MDCM/nms_sampling/h2o_geom.xyz.dir/h2o_1662.chk
%nproc=8
%mem=16000MB
#p B2PLYPD3/Def2QZVP 

h2o

0 1
O  -5.326605  -0.759834   0.925550
H  -4.368927  -0.779418   0.851787
H  -5.609308   0.120799   0.746149
