%chk=/home/boittier/MDCM/nms_sampling/h2o_geom.xyz.dir/h2o_602.chk
%nproc=8
%mem=16000MB
#p B2PLYPD3/Def2QZVP 

h2o

0 1
O  -5.326605  -0.762361   0.913732
H  -4.368927  -0.756138   0.961024
H  -5.609308   0.137951   0.824341

