%chk=/home/boittier/MDCM/nms_sampling/h2o_geom.xyz.dir/h2o_794.chk
%nproc=8
%mem=16000MB
#p B2PLYPD3/Def2QZVP 

h2o

0 1
O  -5.326605  -0.764972   0.924409
H  -4.368927  -0.691665   0.891875
H  -5.609308   0.115255   0.723113

