%chk=/home/boittier/MDCM/nms_sampling/h2o_geom.xyz.dir/h2o_169.chk
%nproc=8
%mem=16000MB
#p B2PLYPD3/Def2QZVP 

h2o

0 1
O  -5.326605  -0.765140   0.922869
H  -4.368927  -0.691379   0.905142
H  -5.609308   0.117656   0.734317
