%chk=/home/boittier/MDCM/nms_sampling/h2o_geom.xyz.dir/h2o_1581.chk
%nproc=8
%mem=16000MB
#p B2PLYPD3/Def2QZVP 

h2o

0 1
O  -5.326605  -0.760666   0.933830
H  -4.368927  -0.719199   0.790623
H  -5.609308   0.073901   0.674757

