%chk=/home/boittier/MDCM/nms_sampling/h2o_geom.xyz.dir/h2o_1127.chk
%nproc=8
%mem=16000MB
#p B2PLYPD3/Def2QZVP 

h2o

0 1
O  -5.326605  -0.766477   0.919342
H  -4.368927  -0.748917   0.942099
H  -5.609308   0.196599   0.754837
