%chk=/home/boittier/MDCM/nms_sampling/h2o_geom.xyz.dir/h2o_995.chk
%nproc=8
%mem=16000MB
#p B2PLYPD3/Def2QZVP 

h2o

0 1
O  -5.326605  -0.764791   0.917955
H  -4.368927  -0.752953   0.942636
H  -5.609308   0.173646   0.776098

