%chk=/home/boittier/MDCM/nms_sampling/h2o_geom.xyz.dir/h2o_250.chk
%nproc=8
%mem=16000MB
#p B2PLYPD3/Def2QZVP 

h2o

0 1
O  -5.326605  -0.763054   0.918414
H  -4.368927  -0.742930   0.928056
H  -5.609308   0.135841   0.782851

