%chk=/home/boittier/MDCM/nms_sampling/h2o_geom.xyz.dir/h2o_1642.chk
%nproc=8
%mem=16000MB
#p B2PLYPD3/Def2QZVP 

h2o

0 1
O  -5.326605  -0.760778   0.912734
H  -4.368927  -0.769311   0.959231
H  -5.609308   0.125809   0.841986

