%chk=/home/boittier/MDCM/nms_sampling/h2o_geom.xyz.dir/h2o_676.chk
%nproc=8
%mem=16000MB
#p B2PLYPD3/Def2QZVP 

h2o

0 1
O  -5.326605  -0.762217   0.919117
H  -4.368927  -0.770430   0.917576
H  -5.609308   0.149943   0.782659

