%chk=/home/boittier/MDCM/nms_sampling/h2o_geom.xyz.dir/h2o_1575.chk
%nproc=8
%mem=16000MB
#p B2PLYPD3/Def2QZVP 

h2o

0 1
O  -5.326605  -0.767005   0.916615
H  -4.368927  -0.774534   0.967311
H  -5.609308   0.230661   0.773565
