%chk=/home/boittier/MDCM/nms_sampling/h2o_geom.xyz.dir/h2o_1307.chk
%nproc=8
%mem=16000MB
#p B2PLYPD3/Def2QZVP 

h2o

0 1
O  -5.326605  -0.765620   0.925552
H  -4.368927  -0.640360   0.886278
H  -5.609308   0.074321   0.709551
