%chk=/home/boittier/MDCM/nms_sampling/h2o_geom.xyz.dir/h2o_1241.chk
%nproc=8
%mem=16000MB
#p B2PLYPD3/Def2QZVP 

h2o

0 1
O  -5.326605  -0.760185   0.911208
H  -4.368927  -0.773336   0.967685
H  -5.609308   0.120348   0.857724

