%chk=/home/boittier/MDCM/nms_sampling/h2o_geom.xyz.dir/h2o_121.chk
%nproc=8
%mem=16000MB
#p B2PLYPD3/Def2QZVP 

h2o

0 1
O  -5.326605  -0.765117   0.922014
H  -4.368927  -0.701970   0.911901
H  -5.609308   0.127886   0.741353

