%chk=/home/boittier/MDCM/nms_sampling/h2o_geom.xyz.dir/h2o_1247.chk
%nproc=8
%mem=16000MB
#p B2PLYPD3/Def2QZVP 

h2o

0 1
O  -5.326605  -0.766447   0.916345
H  -4.368927  -0.770450   0.965925
H  -5.609308   0.217644   0.779039
