%chk=/home/boittier/MDCM/nms_sampling/h2o_geom.xyz.dir/h2o_1353.chk
%nproc=8
%mem=16000MB
#p B2PLYPD3/Def2QZVP 

h2o

0 1
O  -5.326605  -0.766560   0.930690
H  -4.368927  -0.680798   0.851835
H  -5.609308   0.129802   0.663558
