%chk=/home/boittier/MDCM/nms_sampling/h2o_geom.xyz.dir/h2o_1693.chk
%nproc=8
%mem=16000MB
#p B2PLYPD3/Def2QZVP 

h2o

0 1
O  -5.326605  -0.767983   0.932337
H  -4.368927  -0.662690   0.847429
H  -5.609308   0.134458   0.641673

