%chk=/home/boittier/MDCM/nms_sampling/h2o_geom.xyz.dir/h2o_632.chk
%nproc=8
%mem=16000MB
#p B2PLYPD3/Def2QZVP 

h2o

0 1
O  -5.326605  -0.762506   0.915940
H  -4.368927  -0.752581   0.944375
H  -5.609308   0.136715   0.805910

