%chk=/home/boittier/MDCM/nms_sampling/h2o_geom.xyz.dir/h2o_142.chk
%nproc=8
%mem=16000MB
#p B2PLYPD3/Def2QZVP 

h2o

0 1
O  -5.326605  -0.765323   0.922637
H  -4.368927  -0.692843   0.908141
H  -5.609308   0.122056   0.735061

