%chk=/home/boittier/MDCM/nms_sampling/h2o_geom.xyz.dir/h2o_99.chk
%nproc=8
%mem=16000MB
#p B2PLYPD3/Def2QZVP 

h2o

0 1
O  -5.326605  -0.764867   0.922916
H  -4.368927  -0.693080   0.903083
H  -5.609308   0.114992   0.735609

