%chk=/home/boittier/MDCM/nms_sampling/h2o_geom.xyz.dir/h2o_1227.chk
%nproc=8
%mem=16000MB
#p B2PLYPD3/Def2QZVP 

h2o

0 1
O  -5.326605  -0.765154   0.926071
H  -4.368927  -0.642257   0.879276
H  -5.609308   0.068764   0.708274

