%chk=/home/boittier/MDCM/nms_sampling/h2o_geom.xyz.dir/h2o_653.chk
%nproc=8
%mem=16000MB
#p B2PLYPD3/Def2QZVP 

h2o

0 1
O  -5.326605  -0.763360   0.926233
H  -4.368927  -0.729190   0.867785
H  -5.609308   0.126994   0.718822
