%chk=/home/boittier/MDCM/nms_sampling/h2o_geom.xyz.dir/h2o_429.chk
%nproc=8
%mem=16000MB
#p B2PLYPD3/Def2QZVP 

h2o

0 1
O  -5.326605  -0.764186   0.918693
H  -4.368927  -0.748757   0.932962
H  -5.609308   0.159773   0.773854

