%chk=/home/boittier/MDCM/nms_sampling/h2o_geom.xyz.dir/h2o_476.chk
%nproc=8
%mem=16000MB
#p B2PLYPD3/Def2QZVP 

h2o

0 1
O  -5.326605  -0.763448   0.917809
H  -4.368927  -0.745546   0.935343
H  -5.609308   0.144758   0.785300

