%chk=/home/boittier/MDCM/nms_sampling/h2o_geom.xyz.dir/h2o_268.chk
%nproc=8
%mem=16000MB
#p B2PLYPD3/Def2QZVP 

h2o

0 1
O  -5.326605  -0.763484   0.923873
H  -4.368927  -0.719948   0.887178
H  -5.609308   0.119738   0.736691
