%chk=/home/boittier/MDCM/nms_sampling/h2o_geom.xyz.dir/h2o_519.chk
%nproc=8
%mem=16000MB
#p B2PLYPD3/Def2QZVP 

h2o

0 1
O  -5.326605  -0.765438   0.919695
H  -4.368927  -0.733851   0.932652
H  -5.609308   0.164903   0.758160
