%chk=/home/boittier/MDCM/nms_sampling/h2o_geom.xyz.dir/h2o_1740.chk
%nproc=8
%mem=16000MB
#p B2PLYPD3/Def2QZVP 

h2o

0 1
O  -5.326605  -0.762839   0.928593
H  -4.368927  -0.748876   0.846036
H  -5.609308   0.138345   0.703474

