%chk=/home/boittier/MDCM/nms_sampling/h2o_geom.xyz.dir/h2o_1765.chk
%nproc=8
%mem=16000MB
#p B2PLYPD3/Def2QZVP 

h2o

0 1
O  -5.326605  -0.766268   0.909096
H  -4.368927  -0.739726   1.021971
H  -5.609308   0.184058   0.837281

