%chk=/home/boittier/MDCM/nms_sampling/h2o_geom.xyz.dir/h2o_682.chk
%nproc=8
%mem=16000MB
#p B2PLYPD3/Def2QZVP 

h2o

0 1
O  -5.326605  -0.765807   0.917476
H  -4.368927  -0.766067   0.952920
H  -5.609308   0.203018   0.773898
