%chk=/home/boittier/MDCM/nms_sampling/h2o_geom.xyz.dir/h2o_1067.chk
%nproc=8
%mem=16000MB
#p B2PLYPD3/Def2QZVP 

h2o

0 1
O  -5.326605  -0.766370   0.916761
H  -4.368927  -0.715188   0.961524
H  -5.609308   0.161150   0.775583
