%chk=/home/boittier/MDCM/nms_sampling/h2o_geom.xyz.dir/h2o_600.chk
%nproc=8
%mem=16000MB
#p B2PLYPD3/Def2QZVP 

h2o

0 1
O  -5.326605  -0.762539   0.923445
H  -4.368927  -0.752614   0.885055
H  -5.609308   0.137288   0.746174
