%chk=/home/boittier/MDCM/nms_sampling/h2o_geom.xyz.dir/h2o_302.chk
%nproc=8
%mem=16000MB
#p B2PLYPD3/Def2QZVP 

h2o

0 1
O  -5.326605  -0.763424   0.920969
H  -4.368927  -0.717616   0.909813
H  -5.609308   0.116450   0.760060

