%chk=/home/boittier/MDCM/nms_sampling/h2o_geom.xyz.dir/h2o_398.chk
%nproc=8
%mem=16000MB
#p B2PLYPD3/Def2QZVP 

h2o

0 1
O  -5.326605  -0.763154   0.919218
H  -4.368927  -0.743994   0.922313
H  -5.609308   0.138497   0.775886

