%chk=/home/boittier/MDCM/nms_sampling/h2o_geom.xyz.dir/h2o_606.chk
%nproc=8
%mem=16000MB
#p B2PLYPD3/Def2QZVP 

h2o

0 1
O  -5.326605  -0.763362   0.914407
H  -4.368927  -0.746888   0.961809
H  -5.609308   0.144724   0.812822

