%chk=/home/boittier/MDCM/nms_sampling/h2o_geom.xyz.dir/h2o_1569.chk
%nproc=8
%mem=16000MB
#p B2PLYPD3/Def2QZVP 

h2o

0 1
O  -5.326605  -0.766803   0.930833
H  -4.368927  -0.700983   0.852443
H  -5.609308   0.153875   0.661180
