%chk=/home/boittier/MDCM/nms_sampling/h2o_geom.xyz.dir/h2o_393.chk
%nproc=8
%mem=16000MB
#p B2PLYPD3/Def2QZVP 

h2o

0 1
O  -5.326605  -0.764507   0.918643
H  -4.368927  -0.724612   0.935091
H  -5.609308   0.140767   0.772038
