%chk=/home/boittier/MDCM/nms_sampling/h2o_geom.xyz.dir/h2o_1135.chk
%nproc=8
%mem=16000MB
#p B2PLYPD3/Def2QZVP 

h2o

0 1
O  -5.326605  -0.761829   0.923932
H  -4.368927  -0.709046   0.876276
H  -5.609308   0.082358   0.746120

