%chk=/home/boittier/MDCM/nms_sampling/h2o_geom.xyz.dir/h2o_122.chk
%nproc=8
%mem=16000MB
#p B2PLYPD3/Def2QZVP 

h2o

0 1
O  -5.326605  -0.763555   0.925020
H  -4.368927  -0.720205   0.878523
H  -5.609308   0.121132   0.727162

