%chk=/home/boittier/MDCM/nms_sampling/h2o_geom.xyz.dir/h2o_1136.chk
%nproc=8
%mem=16000MB
#p B2PLYPD3/Def2QZVP 

h2o

0 1
O  -5.326605  -0.765879   0.920673
H  -4.368927  -0.741762   0.927729
H  -5.609308   0.179864   0.747823
