%chk=/home/boittier/MDCM/nms_sampling/acrolein_geom.xyz.dir/acrolein_1087.chk
%nproc=8
%mem=16000MB
#p B2PLYPD3/Def2QZVP 

acrolein

0 1
C  -5.000971  -1.384848   0.903765
O  -3.932711  -0.875460   0.644562
C  -5.195256  -2.795574   1.154599
C  -6.403859  -3.315135   1.377723
H  -4.306717  -3.446384   1.183784
H  -7.277959  -2.658380   1.402251
H  -6.612256  -4.461316   1.655919
H  -5.959760  -0.793180   1.059050

