%chk=/home/boittier/MDCM/nms_sampling/acrolein_geom.xyz.dir/acrolein_1936.chk
%nproc=8
%mem=16000MB
#p B2PLYPD3/Def2QZVP 

acrolein

0 1
C  -4.979785  -1.382277   0.850064
O  -3.929533  -0.862373   0.701121
C  -5.209055  -2.846300   1.067654
C  -6.421882  -3.285109   1.459027
H  -4.366021  -3.519530   1.206194
H  -7.386092  -2.662986   1.397300
H  -6.558167  -4.312314   1.634839
H  -5.789953  -0.853582   0.878360
