%chk=/home/boittier/MDCM/nms_sampling/acrolein_geom.xyz.dir/acrolein_2142.chk
%nproc=8
%mem=16000MB
#p B2PLYPD3/Def2QZVP 

acrolein

0 1
C  -4.989164  -1.437054   0.987581
O  -3.965507  -0.835452   0.597152
C  -5.171163  -2.845569   1.160541
C  -6.397171  -3.273817   1.374679
H  -4.339131  -3.516538   1.242979
H  -7.339055  -2.633718   1.126105
H  -6.631474  -4.331564   1.598838
H  -5.836045  -0.790794   1.064913
