%chk=/home/boittier/MDCM/nms_sampling/acrolein_geom.xyz.dir/acrolein_1551.chk
%nproc=8
%mem=16000MB
#p B2PLYPD3/Def2QZVP 

acrolein

0 1
C  -5.009504  -1.369065   0.910393
O  -3.924957  -0.880444   0.642666
C  -5.187815  -2.802874   1.145521
C  -6.415629  -3.320364   1.394667
H  -4.299236  -3.405304   1.205370
H  -7.248998  -2.668676   1.344198
H  -6.594625  -4.451783   1.579760
H  -5.975617  -0.788814   1.031732

