%chk=/home/boittier/MDCM/nms_sampling/acrolein_geom.xyz.dir/acrolein_1839.chk
%nproc=8
%mem=16000MB
#p B2PLYPD3/Def2QZVP 

acrolein

0 1
C  -4.985561  -1.388872   0.813094
O  -3.944083  -0.847332   0.728054
C  -5.190598  -2.869820   1.107902
C  -6.430650  -3.281417   1.472375
H  -4.287816  -3.550291   0.827982
H  -7.279423  -2.677090   1.490865
H  -6.498968  -4.205049   1.557655
H  -5.842076  -0.838616   0.650306

