%chk=/home/boittier/MDCM/nms_sampling/acrolein_geom.xyz.dir/acrolein_1401.chk
%nproc=8
%mem=16000MB
#p B2PLYPD3/Def2QZVP 

acrolein

0 1
C  -5.002712  -1.373449   0.867242
O  -3.933926  -0.879401   0.692358
C  -5.194291  -2.821650   1.096003
C  -6.409644  -3.302014   1.428455
H  -4.329453  -3.417956   1.093458
H  -7.215632  -2.687509   1.465770
H  -6.610632  -4.419103   1.717283
H  -5.892312  -0.742629   0.810081
