%chk=/home/boittier/MDCM/nms_sampling/acrolein_geom.xyz.dir/acrolein_1797.chk
%nproc=8
%mem=16000MB
#p B2PLYPD3/Def2QZVP 

acrolein

0 1
C  -4.986011  -1.390037   0.923392
O  -3.930119  -0.856208   0.625385
C  -5.195016  -2.848082   1.190506
C  -6.434954  -3.290049   1.380063
H  -4.297922  -3.484596   1.093344
H  -7.282506  -2.678788   1.313244
H  -6.568169  -4.293557   1.483721
H  -5.870647  -0.821999   1.038658

