%chk=/home/boittier/MDCM/nms_sampling/acrolein_geom.xyz.dir/acrolein_618.chk
%nproc=8
%mem=16000MB
#p B2PLYPD3/Def2QZVP 

acrolein

0 1
C  -5.008281  -1.373863   0.917781
O  -3.928698  -0.876928   0.637018
C  -5.196955  -2.810576   1.165757
C  -6.396778  -3.319280   1.383980
H  -4.375105  -3.437013   1.115970
H  -7.280328  -2.647206   1.327963
H  -6.573304  -4.366193   1.597225
H  -5.959453  -0.774917   1.017160

