%chk=/home/boittier/MDCM/nms_sampling/acrolein_geom.xyz.dir/acrolein_2405.chk
%nproc=8
%mem=16000MB
#p B2PLYPD3/Def2QZVP 

acrolein

0 1
C  -5.029654  -1.378543   0.906823
O  -3.932978  -0.884110   0.642031
C  -5.208528  -2.769886   1.195804
C  -6.371509  -3.349777   1.367270
H  -4.286600  -3.360069   1.002090
H  -7.179784  -2.657659   1.514593
H  -6.505237  -4.391578   1.543091
H  -6.047988  -0.781371   0.893626
