%chk=/home/boittier/MDCM/nms_sampling/acrolein_geom.xyz.dir/acrolein_1829.chk
%nproc=8
%mem=16000MB
#p B2PLYPD3/Def2QZVP 

acrolein

0 1
C  -4.996325  -1.362251   0.923719
O  -3.919608  -0.886369   0.641381
C  -5.211038  -2.814469   1.129565
C  -6.422649  -3.312597   1.375017
H  -4.309722  -3.485507   1.293500
H  -7.092612  -2.682724   1.457129
H  -6.656123  -4.343695   1.695754
H  -5.938798  -0.735192   0.988847

