%chk=/home/boittier/MDCM/nms_sampling/acrolein_geom.xyz.dir/acrolein_113.chk
%nproc=8
%mem=16000MB
#p B2PLYPD3/Def2QZVP 

acrolein

0 1
C  -5.001744  -1.385920   0.875544
O  -3.935116  -0.862138   0.678067
C  -5.195267  -2.834736   1.120333
C  -6.411015  -3.305072   1.417495
H  -4.269311  -3.452762   1.071850
H  -7.289708  -2.674142   1.393749
H  -6.550966  -4.316540   1.688762
H  -5.917785  -0.773134   0.902803
