%chk=/home/boittier/MDCM/nms_sampling/acrolein_geom.xyz.dir/acrolein_2037.chk
%nproc=8
%mem=16000MB
#p B2PLYPD3/Def2QZVP 

acrolein

0 1
C  -5.006522  -1.423606   0.972835
O  -3.947923  -0.832619   0.592926
C  -5.179466  -2.869917   1.202358
C  -6.411982  -3.265818   1.331384
H  -4.204118  -3.462224   1.180842
H  -7.208414  -2.678947   1.250354
H  -6.583107  -4.360291   1.687069
H  -5.943667  -0.785379   1.167983
