%chk=/home/boittier/MDCM/nms_sampling/acrolein_geom.xyz.dir/acrolein_1383.chk
%nproc=8
%mem=16000MB
#p B2PLYPD3/Def2QZVP 

acrolein

0 1
C  -5.023792  -1.368661   0.928465
O  -3.935798  -0.879931   0.627553
C  -5.184766  -2.811647   1.191097
C  -6.388906  -3.324122   1.366500
H  -4.342677  -3.402586   1.067602
H  -7.188753  -2.650962   1.399217
H  -6.572184  -4.380227   1.555082
H  -6.007989  -0.728891   0.967323

