%chk=/home/boittier/MDCM/nms_sampling/acrolein_geom.xyz.dir/acrolein_2632.chk
%nproc=8
%mem=16000MB
#p B2PLYPD3/Def2QZVP 

acrolein

0 1
C  -4.982823  -1.401940   0.836351
O  -3.932617  -0.845489   0.711339
C  -5.207461  -2.855222   1.116416
C  -6.429526  -3.293223   1.453145
H  -4.154575  -3.505838   0.876096
H  -7.352442  -2.630814   1.471582
H  -6.614873  -4.249830   1.593858
H  -5.826644  -0.832602   0.696581
