%chk=/home/boittier/MDCM/nms_sampling/acrolein_geom.xyz.dir/acrolein_2563.chk
%nproc=8
%mem=16000MB
#p B2PLYPD3/Def2QZVP 

acrolein

0 1
C  -4.996666  -1.382287   0.949413
O  -3.904507  -0.860950   0.604530
C  -5.207004  -2.834758   1.175758
C  -6.433298  -3.294660   1.364203
H  -4.288982  -3.509722   1.315378
H  -7.235216  -2.702224   1.273733
H  -6.599447  -4.380992   1.521379
H  -6.056686  -0.799998   1.181758

