%chk=/home/boittier/MDCM/nms_sampling/acrolein_geom.xyz.dir/acrolein_2064.chk
%nproc=8
%mem=16000MB
#p B2PLYPD3/Def2QZVP 

acrolein

0 1
C  -4.992440  -1.370767   0.955673
O  -3.925854  -0.848137   0.599210
C  -5.185842  -2.884496   1.203538
C  -6.427928  -3.288190   1.365796
H  -4.315949  -3.535271   1.251927
H  -7.424964  -2.602433   1.423994
H  -6.505407  -4.253673   1.284916
H  -5.959045  -0.817296   0.994114

