%chk=/home/boittier/MDCM/nms_sampling/butadiene_geom.xyz.dir/butadiene_2040.chk
%nproc=8
%mem=16000MB
#p B2PLYPD3/Def2QZVP 

butadiene

0 1
C  -3.795754   0.237194  -0.001162
C  -2.706366  -0.525238   0.099641
C  -1.423068   0.043011   0.053987
C  -0.277647  -0.644687  -0.011468
H  -4.788431  -0.117942  -0.210476
H  -3.686444   1.347007  -0.100056
H  -2.883337  -1.599174  -0.082834
H  -1.352177   1.142612  -0.025658
H  -0.257782  -1.647489   0.135590
H   0.594750  -0.089493  -0.112311

