%chk=/home/boittier/MDCM/nms_sampling/butadiene_geom.xyz.dir/butadiene_1433.chk
%nproc=8
%mem=16000MB
#p B2PLYPD3/Def2QZVP 

butadiene

0 1
C  -3.848141   0.237364   0.025395
C  -2.724110  -0.498168   0.023746
C  -1.378431   0.035101   0.002457
C  -0.254779  -0.641955   0.052806
H  -4.831615  -0.245242   0.033803
H  -3.831761   1.324070   0.018605
H  -2.749774  -1.570212   0.034207
H  -1.332373   1.128895   0.011474
H  -0.241883  -1.721962   0.097539
H   0.642119  -0.132942  -0.119829

