%chk=/home/boittier/MDCM/nms_sampling/butadiene_geom.xyz.dir/butadiene_695.chk
%nproc=8
%mem=16000MB
#p B2PLYPD3/Def2QZVP 

butadiene

0 1
C  -3.851507   0.222395   0.007403
C  -2.732319  -0.504058   0.049375
C  -1.378147   0.064384   0.032663
C  -0.250624  -0.649795   0.013642
H  -4.828336  -0.223133  -0.009344
H  -3.754735   1.334741  -0.012108
H  -2.811119  -1.598079   0.077118
H  -1.302265   1.150321  -0.043732
H  -0.258965  -1.719952   0.067028
H   0.695506  -0.155218   0.018397

