%chk=/home/boittier/MDCM/nms_sampling/butadiene_geom.xyz.dir/butadiene_2316.chk
%nproc=8
%mem=16000MB
#p B2PLYPD3/Def2QZVP 

butadiene

0 1
C  -3.856789   0.185215   0.003341
C  -2.712375  -0.442328   0.023566
C  -1.348021   0.105478   0.053274
C  -0.265702  -0.685899   0.024653
H  -4.734018  -0.340159   0.101250
H  -4.066512   1.242532  -0.200387
H  -2.903932  -1.606596   0.364197
H  -1.297378   1.190695   0.129579
H  -0.417719  -1.762349  -0.178057
H   0.764320  -0.259906  -0.061555
