%chk=/home/boittier/MDCM/nms_sampling/butadiene_geom.xyz.dir/butadiene_2842.chk
%nproc=8
%mem=16000MB
#p B2PLYPD3/Def2QZVP 

butadiene

0 1
C  -3.883753   0.202230   0.016767
C  -2.737242  -0.485787   0.007203
C  -1.346845   0.137020  -0.010649
C  -0.264368  -0.689206   0.051246
H  -4.823690  -0.377277   0.348390
H  -3.842361   1.296385  -0.018667
H  -2.591978  -1.521364   0.038772
H  -1.186517   1.152300   0.038167
H  -0.285235  -1.758065   0.061385
H   0.708853  -0.323050   0.121666
