%chk=/home/boittier/MDCM/nms_sampling/butadiene_geom.xyz.dir/butadiene_2649.chk
%nproc=8
%mem=16000MB
#p B2PLYPD3/Def2QZVP 

butadiene

0 1
C  -3.874120   0.213730   0.077368
C  -2.708925  -0.457046  -0.049896
C  -1.369612   0.061905  -0.027963
C  -0.251344  -0.670901   0.102675
H  -4.725234  -0.360185   0.054709
H  -3.969489   1.331958   0.222699
H  -2.725876  -1.520209  -0.114292
H  -1.290399   1.094002  -0.257279
H  -0.335447  -1.723294   0.295053
H   0.677005  -0.194738  -0.173214

