%chk=/home/boittier/MDCM/nms_sampling/butadiene_geom.xyz.dir/butadiene_1583.chk
%nproc=8
%mem=16000MB
#p B2PLYPD3/Def2QZVP 

butadiene

0 1
C  -3.822440   0.239387  -0.030188
C  -2.722864  -0.514742   0.099583
C  -1.395299   0.041230   0.043833
C  -0.271718  -0.643802  -0.006340
H  -4.831999  -0.193306   0.007050
H  -3.718266   1.331339  -0.042061
H  -2.741061  -1.569788   0.052774
H  -1.327652   1.104809   0.049773
H  -0.272053  -1.680834  -0.006236
H   0.633869  -0.089604   0.005422
