%chk=/home/boittier/MDCM/nms_sampling/butadiene_geom.xyz.dir/butadiene_969.chk
%nproc=8
%mem=16000MB
#p B2PLYPD3/Def2QZVP 

butadiene

0 1
C  -3.837403   0.231574  -0.023724
C  -2.734520  -0.507803   0.078030
C  -1.377739   0.049594   0.069806
C  -0.257308  -0.645305  -0.006150
H  -4.830955  -0.183883  -0.070951
H  -3.754500   1.316591  -0.015418
H  -2.817618  -1.636792   0.141771
H  -1.326513   1.136911  -0.024041
H  -0.243582  -1.733375   0.000539
H   0.636242  -0.068540  -0.106527

