%chk=/home/boittier/MDCM/nms_sampling/butadiene_geom.xyz.dir/butadiene_2650.chk
%nproc=8
%mem=16000MB
#p B2PLYPD3/Def2QZVP 

butadiene

0 1
C  -3.834507   0.261931   0.071983
C  -2.730122  -0.564238  -0.038831
C  -1.399819   0.073070  -0.015015
C  -0.260221  -0.635697   0.059771
H  -4.732262  -0.194237   0.209251
H  -3.676669   1.365529  -0.034386
H  -2.750306  -1.678789   0.019632
H  -1.345628   1.116511  -0.167660
H  -0.313606  -1.703079   0.139899
H   0.723775  -0.159279   0.222092

