%chk=/home/boittier/MDCM/nms_sampling/butadiene_geom.xyz.dir/butadiene_2213.chk
%nproc=8
%mem=16000MB
#p B2PLYPD3/Def2QZVP 

butadiene

0 1
C  -3.869651   0.203358  -0.075198
C  -2.712090  -0.435181   0.154591
C  -1.375693   0.076563   0.061017
C  -0.277897  -0.687894  -0.024326
H  -4.777840  -0.355740  -0.150861
H  -3.973044   1.260500   0.083455
H  -2.636610  -1.565361   0.089906
H  -1.228456   1.174856   0.135587
H  -0.151468  -1.728836  -0.017190
H   0.778216  -0.235376  -0.182965

