%chk=/home/boittier/MDCM/nms_sampling/butadiene_geom.xyz.dir/butadiene_2147.chk
%nproc=8
%mem=16000MB
#p B2PLYPD3/Def2QZVP 

butadiene

0 1
C  -3.845835   0.175693   0.075871
C  -2.691813  -0.428455  -0.042900
C  -1.385889   0.091611  -0.043197
C  -0.283612  -0.693482   0.067516
H  -4.855624  -0.235302   0.106768
H  -3.891484   1.227753   0.177590
H  -2.785082  -1.532869  -0.066138
H  -1.262172   1.156166  -0.103970
H  -0.307195  -1.778758   0.418775
H   0.736584  -0.161347   0.077596
