%chk=/home/boittier/MDCM/nms_sampling/butadiene_geom.xyz.dir/butadiene_801.chk
%nproc=8
%mem=16000MB
#p B2PLYPD3/Def2QZVP 

butadiene

0 1
C  -3.851103   0.223110   0.027178
C  -2.725258  -0.496915   0.021994
C  -1.375053   0.082426   0.005876
C  -0.258462  -0.657679   0.033213
H  -4.791585  -0.299140   0.069244
H  -3.860209   1.309007  -0.036071
H  -2.753390  -1.572694   0.093027
H  -1.305887   1.144528   0.022090
H  -0.309709  -1.740962   0.089334
H   0.729667  -0.251976   0.054200

