%chk=/home/boittier/MDCM/nms_sampling/butadiene_geom.xyz.dir/butadiene_2468.chk
%nproc=8
%mem=16000MB
#p B2PLYPD3/Def2QZVP 

butadiene

0 1
C  -3.835330   0.212313   0.092115
C  -2.691087  -0.493427  -0.056116
C  -1.384925   0.127834  -0.029946
C  -0.295011  -0.699692   0.091608
H  -4.781475  -0.285877   0.239121
H  -3.872306   1.243765  -0.117708
H  -2.598156  -1.530459  -0.020005
H  -1.240585   1.231186  -0.152978
H  -0.439233  -1.795206   0.066973
H   0.575401  -0.210226   0.130623

