%chk=/home/boittier/MDCM/nms_sampling/butadiene_geom.xyz.dir/butadiene_2817.chk
%nproc=8
%mem=16000MB
#p B2PLYPD3/Def2QZVP 

butadiene

0 1
C  -3.832725   0.204318  -0.073575
C  -2.697614  -0.455108   0.134719
C  -1.402775   0.111771   0.067859
C  -0.280814  -0.696346  -0.029037
H  -4.643149  -0.400808  -0.143013
H  -3.900532   1.271566   0.141584
H  -2.712572  -1.535171   0.163309
H  -1.388416   1.232579   0.135216
H  -0.393823  -1.809942   0.055768
H   0.787022  -0.291172  -0.193040

