%chk=/home/boittier/MDCM/nms_sampling/butadiene_geom.xyz.dir/butadiene_2499.chk
%nproc=8
%mem=16000MB
#p B2PLYPD3/Def2QZVP 

butadiene

0 1
C  -3.817310   0.262392   0.021328
C  -2.728382  -0.532478   0.016700
C  -1.384384   0.013390  -0.015306
C  -0.263762  -0.618412   0.068929
H  -4.818791  -0.230360   0.178110
H  -3.908774   1.333309   0.171790
H  -2.946178  -1.603824  -0.141815
H  -1.281191   1.044901  -0.132914
H  -0.202374  -1.605461   0.182048
H   0.684691  -0.099075  -0.069802

