%chk=/home/boittier/MDCM/nms_sampling/butadiene_geom.xyz.dir/butadiene_1903.chk
%nproc=8
%mem=16000MB
#p B2PLYPD3/Def2QZVP 

butadiene

0 1
C  -3.860718   0.217642   0.061444
C  -2.718310  -0.488007   0.010969
C  -1.369782   0.077065  -0.027948
C  -0.249548  -0.658468   0.067632
H  -4.818360  -0.300744  -0.023831
H  -3.930946   1.314439   0.051238
H  -2.746905  -1.545970  -0.136212
H  -1.307260   1.165301  -0.147206
H  -0.363794  -1.785014   0.180525
H   0.727669  -0.230749   0.008616

