%chk=/home/boittier/MDCM/nms_sampling/butadiene_geom.xyz.dir/butadiene_194.chk
%nproc=8
%mem=16000MB
#p B2PLYPD3/Def2QZVP 

butadiene

0 1
C  -3.852462   0.212519   0.030529
C  -2.721602  -0.489911   0.025951
C  -1.374810   0.082772  -0.000538
C  -0.264523  -0.658395   0.038527
H  -4.820071  -0.268822   0.050903
H  -3.832550   1.284920   0.025299
H  -2.775825  -1.563732  -0.031423
H  -1.247316   1.175764  -0.055974
H  -0.304369  -1.742203   0.162496
H   0.726565  -0.246277   0.030903
