%chk=/home/boittier/MDCM/nms_sampling/butadiene_geom.xyz.dir/butadiene_2524.chk
%nproc=8
%mem=16000MB
#p B2PLYPD3/Def2QZVP 

butadiene

0 1
C  -3.860987   0.210469  -0.037255
C  -2.757117  -0.489667   0.128153
C  -1.361283   0.094538   0.054720
C  -0.226458  -0.674072   0.010203
H  -4.784907  -0.317868  -0.131239
H  -3.831011   1.300280  -0.021447
H  -2.828852  -1.570390  -0.080312
H  -1.391282   1.238368  -0.041290
H  -0.306960  -1.719563  -0.072476
H   0.802251  -0.213005  -0.225145
