%chk=/home/boittier/MDCM/nms_sampling/butadiene_geom.xyz.dir/butadiene_1275.chk
%nproc=8
%mem=16000MB
#p B2PLYPD3/Def2QZVP 

butadiene

0 1
C  -3.843414   0.214390  -0.000395
C  -2.710742  -0.471252   0.046033
C  -1.386470   0.066032   0.038019
C  -0.260733  -0.666052   0.018204
H  -4.836243  -0.270197   0.073097
H  -3.830179   1.282680  -0.019262
H  -2.800355  -1.566746   0.030646
H  -1.327657   1.120607  -0.006148
H  -0.294987  -1.764571   0.107793
H   0.674987  -0.126928  -0.076139

