%chk=/home/boittier/MDCM/nms_sampling/butadiene_geom.xyz.dir/butadiene_2792.chk
%nproc=8
%mem=16000MB
#p B2PLYPD3/Def2QZVP 

butadiene

0 1
C  -3.870355   0.205517   0.096453
C  -2.724813  -0.469798  -0.022559
C  -1.350600   0.094806  -0.052600
C  -0.268009  -0.659645   0.074441
H  -4.758279  -0.372056  -0.039125
H  -3.969558   1.274147   0.040794
H  -2.766075  -1.615732  -0.023738
H  -1.186245   1.206549  -0.227370
H  -0.340025  -1.784222   0.121354
H   0.769318  -0.339201   0.274312
