%chk=/home/boittier/MDCM/nms_sampling/butadiene_geom.xyz.dir/butadiene_1634.chk
%nproc=8
%mem=16000MB
#p B2PLYPD3/Def2QZVP 

butadiene

0 1
C  -3.833166   0.214116   0.014071
C  -2.708003  -0.496424   0.042134
C  -1.374462   0.093296   0.024556
C  -0.280083  -0.656223   0.022143
H  -4.832193  -0.249266   0.043730
H  -3.832177   1.270399  -0.151406
H  -2.857316  -1.631848   0.132779
H  -1.346449   1.172371   0.120086
H  -0.368571  -1.762367   0.015079
H   0.753140  -0.265123  -0.024842

