%chk=/home/boittier/MDCM/nms_sampling/methanol_geom.xyz.dir/methanol_1573.chk
%nproc=8
%mem=16000MB
#p B2PLYPD3/Def2QZVP 

methanol

0 1
C  -5.174415  -1.248197   0.918639
O  -3.777960  -1.124695   0.849152
H  -5.535588  -2.272543   0.518910
H  -5.594942  -0.481957   0.354420
H  -5.405097  -1.174383   2.018412
H  -3.497313  -1.178816   0.052856

