%chk=/home/boittier/MDCM/nms_sampling/methanol_geom.xyz.dir/methanol_1234.chk
%nproc=8
%mem=16000MB
#p B2PLYPD3/Def2QZVP 

methanol

0 1
C  -5.172956  -1.262252   0.918212
O  -3.774647  -1.118695   0.869462
H  -5.491953  -2.141295   0.561312
H  -5.597272  -0.491856   0.342777
H  -5.458615  -1.163808   1.922184
H  -3.549573  -1.246665  -0.209537
