%chk=/home/boittier/MDCM/nms_sampling/methanol_geom.xyz.dir/methanol_23.chk
%nproc=8
%mem=16000MB
#p B2PLYPD3/Def2QZVP 

methanol

0 1
C  -5.178158  -1.258533   0.912475
O  -3.763898  -1.119437   0.860578
H  -5.520265  -2.243250   0.536054
H  -5.765955  -0.462920   0.347413
H  -5.443725  -1.167616   1.959142
H  -3.480511  -1.202044  -0.011646
