%chk=/home/boittier/MDCM/nms_sampling/methanol_geom.xyz.dir/methanol_593.chk
%nproc=8
%mem=16000MB
#p B2PLYPD3/Def2QZVP 

methanol

0 1
C  -5.169917  -1.257312   0.917575
O  -3.770599  -1.122478   0.847723
H  -5.523202  -2.237496   0.516837
H  -5.675572  -0.422602   0.320123
H  -5.476812  -1.187780   2.026775
H  -3.519753  -1.196206   0.115850

