%chk=/home/boittier/MDCM/nms_sampling/methanol_geom.xyz.dir/methanol_637.chk
%nproc=8
%mem=16000MB
#p B2PLYPD3/Def2QZVP 

methanol

0 1
C  -5.185558  -1.255101   0.920426
O  -3.767501  -1.124815   0.854930
H  -5.501641  -2.264952   0.507018
H  -5.686385  -0.455655   0.343617
H  -5.431491  -1.138254   1.955564
H  -3.448016  -1.170716   0.023692

