%chk=/home/boittier/MDCM/nms_sampling/methanol_geom.xyz.dir/methanol_726.chk
%nproc=8
%mem=16000MB
#p B2PLYPD3/Def2QZVP 

methanol

0 1
C  -5.182645  -1.262555   0.914169
O  -3.767909  -1.121100   0.852017
H  -5.514563  -2.216464   0.538787
H  -5.688102  -0.425454   0.320480
H  -5.428398  -1.162955   2.017914
H  -3.460207  -1.198617   0.072402
