%chk=/home/boittier/MDCM/nms_sampling/methanol_geom.xyz.dir/methanol_2454.chk
%nproc=8
%mem=16000MB
#p B2PLYPD3/Def2QZVP 

methanol

0 1
C  -5.191231  -1.258836   0.924342
O  -3.775244  -1.129573   0.885735
H  -5.593277  -2.070486   0.633014
H  -5.564410  -0.568179   0.326753
H  -5.419072  -1.112296   1.827576
H  -3.298681  -1.162835  -0.508489
