%chk=/home/boittier/MDCM/nms_sampling/methanol_geom.xyz.dir/methanol_3339.chk
%nproc=8
%mem=16000MB
#p B2PLYPD3/Def2QZVP 

methanol

0 1
C  -5.191333  -1.223656   0.919458
O  -3.765369  -1.127611   0.875764
H  -5.548021  -2.243688   0.563206
H  -5.478283  -0.668123   0.420809
H  -5.503002  -1.200423   1.893511
H  -3.516384  -1.230990  -0.376951

