%chk=/home/boittier/MDCM/nms_sampling/methanol_geom.xyz.dir/methanol_2698.chk
%nproc=8
%mem=16000MB
#p B2PLYPD3/Def2QZVP 

methanol

0 1
C  -5.187014  -1.264180   0.906939
O  -3.770992  -1.117676   0.882899
H  -5.485130  -2.246198   0.621827
H  -5.772188  -0.527031   0.385051
H  -5.331030  -1.062777   1.821829
H  -3.414732  -1.195214  -0.292909
