%chk=/home/boittier/MDCM/nms_sampling/methanol_geom.xyz.dir/methanol_2476.chk
%nproc=8
%mem=16000MB
#p B2PLYPD3/Def2QZVP 

methanol

0 1
C  -5.177591  -1.250797   0.891103
O  -3.756568  -1.122314   0.878190
H  -5.500306  -2.113668   0.668316
H  -5.677768  -0.534493   0.362513
H  -5.572004  -1.250455   2.004521
H  -3.575894  -1.228446  -0.242782
