%chk=/home/boittier/MDCM/nms_sampling/methanol_geom.xyz.dir/methanol_2019.chk
%nproc=8
%mem=16000MB
#p B2PLYPD3/Def2QZVP 

methanol

0 1
C  -5.174470  -1.255220   0.900371
O  -3.764282  -1.122534   0.857716
H  -5.484347  -2.205359   0.563501
H  -5.702175  -0.436824   0.373098
H  -5.515336  -1.218923   2.041615
H  -3.538983  -1.208230   0.041369
