%chk=/home/boittier/MDCM/nms_sampling/methanol_geom.xyz.dir/methanol_470.chk
%nproc=8
%mem=16000MB
#p B2PLYPD3/Def2QZVP 

methanol

0 1
C  -5.181823  -1.256950   0.921114
O  -3.766367  -1.121446   0.847801
H  -5.478080  -2.266473   0.533982
H  -5.653307  -0.415053   0.295032
H  -5.462755  -1.170183   1.991539
H  -3.532382  -1.210936   0.117519

