%chk=/home/boittier/MDCM/nms_sampling/methanol_geom.xyz.dir/methanol_2985.chk
%nproc=8
%mem=16000MB
#p B2PLYPD3/Def2QZVP 

methanol

0 1
C  -5.180823  -1.239535   0.908612
O  -3.776492  -1.132445   0.834647
H  -5.451170  -2.364541   0.501420
H  -5.744185  -0.466541   0.274536
H  -5.405250  -1.141191   2.141568
H  -3.383630  -1.114863   0.378753

