%chk=/home/boittier/MDCM/nms_sampling/methanol_geom.xyz.dir/methanol_284.chk
%nproc=8
%mem=16000MB
#p B2PLYPD3/Def2QZVP 

methanol

0 1
C  -5.187973  -1.252813   0.918550
O  -3.760722  -1.124142   0.850567
H  -5.530655  -2.283432   0.518384
H  -5.699224  -0.427377   0.349569
H  -5.458267  -1.180621   1.975113
H  -3.457378  -1.177167   0.081519

