%chk=/home/boittier/MDCM/nms_sampling/methanol_geom.xyz.dir/methanol_317.chk
%nproc=8
%mem=16000MB
#p B2PLYPD3/Def2QZVP 

methanol

0 1
C  -5.186230  -1.261893   0.912406
O  -3.759923  -1.119866   0.862127
H  -5.499491  -2.216226   0.564719
H  -5.737258  -0.447581   0.326544
H  -5.462301  -1.159127   1.951879
H  -3.478205  -1.209237  -0.036601

