%chk=/home/boittier/MDCM/nms_sampling/methanol_geom.xyz.dir/methanol_1374.chk
%nproc=8
%mem=16000MB
#p B2PLYPD3/Def2QZVP 

methanol

0 1
C  -5.179904  -1.257765   0.913388
O  -3.764918  -1.129134   0.879543
H  -5.543195  -2.104746   0.586902
H  -5.688085  -0.520751   0.351777
H  -5.513814  -1.165083   1.892482
H  -3.420202  -1.148716  -0.322728
