%chk=/home/boittier/MDCM/nms_sampling/methanol_geom.xyz.dir/methanol_650.chk
%nproc=8
%mem=16000MB
#p B2PLYPD3/Def2QZVP 

methanol

0 1
C  -5.192891  -1.251799   0.909460
O  -3.761757  -1.122731   0.859218
H  -5.504906  -2.256297   0.540101
H  -5.690588  -0.485065   0.375420
H  -5.430134  -1.163884   1.986123
H  -3.450036  -1.194049  -0.012723

