%chk=/home/boittier/MDCM/nms_sampling/methanol_geom.xyz.dir/methanol_3271.chk
%nproc=8
%mem=16000MB
#p B2PLYPD3/Def2QZVP 

methanol

0 1
C  -5.197501  -1.261437   0.920787
O  -3.769101  -1.133122   0.829214
H  -5.536085  -2.256960   0.513074
H  -5.570035  -0.325886   0.311833
H  -5.441756  -1.130828   2.105392
H  -3.345412  -1.117283   0.315454

