%chk=/home/boittier/MDCM/nms_sampling/methanol_geom.xyz.dir/methanol_3302.chk
%nproc=8
%mem=16000MB
#p B2PLYPD3/Def2QZVP 

methanol

0 1
C  -5.149417  -1.265201   0.922394
O  -3.776503  -1.120993   0.878497
H  -5.619332  -2.024813   0.593695
H  -5.566775  -0.503672   0.350964
H  -5.526887  -1.247961   1.888197
H  -3.616434  -1.205636  -0.413920
