%chk=/home/boittier/MDCM/nms_sampling/cyanomethane_geom.xyz.dir/cyanomethane_1202.chk
%nproc=8
%mem=16000MB
#p B2PLYPD3/Def2QZVP 

cyanomethane

0 1
C  -6.589509  -1.123528   1.158067
C  -5.203794  -0.790944   0.938375
N  -4.101292  -0.532892   0.686011
H  -6.732160  -1.238059   2.205846
H  -6.932755  -2.022418   0.639445
H  -7.159193  -0.269515   0.810572
