%chk=/home/boittier/MDCM/nms_sampling/cyanomethane_geom.xyz.dir/cyanomethane_2573.chk
%nproc=8
%mem=16000MB
#p B2PLYPD3/Def2QZVP 

cyanomethane

0 1
C  -6.605943  -1.124509   1.199721
C  -5.190846  -0.807059   0.833782
N  -4.083661  -0.531051   0.738947
H  -6.844543  -1.101496   2.190930
H  -6.881243  -2.000021   0.734731
H  -7.302684  -0.310025   0.743682
