%chk=/home/boittier/MDCM/nms_sampling/cyanomethane_geom.xyz.dir/cyanomethane_1897.chk
%nproc=8
%mem=16000MB
#p B2PLYPD3/Def2QZVP 

cyanomethane

0 1
C  -6.610592  -1.122401   1.153409
C  -5.199818  -0.781842   0.939181
N  -4.086771  -0.539365   0.685892
H  -6.733013  -1.254075   2.195187
H  -6.891681  -2.022661   0.661386
H  -7.195786  -0.285886   0.838421

