%chk=/home/boittier/MDCM/nms_sampling/cyanomethane_geom.xyz.dir/cyanomethane_2989.chk
%nproc=8
%mem=16000MB
#p B2PLYPD3/Def2QZVP 

cyanomethane

0 1
C  -6.627113  -1.121602   1.168865
C  -5.198900  -0.821903   0.930383
N  -4.076633  -0.516439   0.689893
H  -6.707033  -1.129748   2.262579
H  -6.952364  -2.079390   0.643182
H  -7.116947  -0.222877   0.688843

