%chk=/home/boittier/MDCM/nms_sampling/cyanomethane_geom.xyz.dir/cyanomethane_2693.chk
%nproc=8
%mem=16000MB
#p B2PLYPD3/Def2QZVP 

cyanomethane

0 1
C  -6.612421  -1.131559   1.200208
C  -5.189300  -0.721235   0.889499
N  -4.084771  -0.575151   0.707425
H  -6.761504  -1.254635   2.257613
H  -6.857414  -2.109229   0.522523
H  -7.337214  -0.328801   0.651035

