%chk=/home/boittier/MDCM/nms_sampling/cyanomethane_geom.xyz.dir/cyanomethane_2587.chk
%nproc=8
%mem=16000MB
#p B2PLYPD3/Def2QZVP 

cyanomethane

0 1
C  -6.628456  -1.085656   1.162052
C  -5.191194  -0.793597   0.956330
N  -4.084374  -0.537602   0.672598
H  -6.600669  -1.364046   2.207605
H  -6.888270  -2.106133   0.579491
H  -7.256540  -0.395985   0.784264
