%chk=/home/boittier/MDCM/nms_sampling/cyanomethane_geom.xyz.dir/cyanomethane_1859.chk
%nproc=8
%mem=16000MB
#p B2PLYPD3/Def2QZVP 

cyanomethane

0 1
C  -6.605305  -1.119381   1.160133
C  -5.194578  -0.818192   0.919532
N  -4.089285  -0.518660   0.697236
H  -6.792282  -1.190652   2.273673
H  -6.966412  -1.994399   0.648746
H  -7.156349  -0.281361   0.788846

