%chk=/home/boittier/MDCM/nms_sampling/cyanomethane_geom.xyz.dir/cyanomethane_1546.chk
%nproc=8
%mem=16000MB
#p B2PLYPD3/Def2QZVP 

cyanomethane

0 1
C  -6.591952  -1.117721   1.165590
C  -5.199980  -0.782735   0.878237
N  -4.093129  -0.539390   0.719626
H  -6.857142  -1.243358   2.275356
H  -6.915897  -2.040423   0.698224
H  -7.182126  -0.346691   0.831583
