%chk=/home/boittier/MDCM/nms_sampling/cyanomethane_geom.xyz.dir/cyanomethane_2840.chk
%nproc=8
%mem=16000MB
#p B2PLYPD3/Def2QZVP 

cyanomethane

0 1
C  -6.624913  -1.116804   1.158866
C  -5.192835  -0.844114   0.918663
N  -4.083780  -0.501382   0.698180
H  -6.756788  -1.246217   2.234100
H  -6.989339  -1.940718   0.619586
H  -7.028432  -0.226733   0.876397
