%chk=/home/boittier/MDCM/nms_sampling/cyanomethane_geom.xyz.dir/cyanomethane_38.chk
%nproc=8
%mem=16000MB
#p B2PLYPD3/Def2QZVP 

cyanomethane

0 1
C  -6.588859  -1.115662   1.169060
C  -5.202467  -0.787659   0.904765
N  -4.098029  -0.540615   0.703100
H  -6.762241  -1.217058   2.242251
H  -6.849617  -2.032808   0.660752
H  -7.283710  -0.326560   0.779866

