%chk=/home/boittier/MDCM/nms_sampling/cyanomethane_geom.xyz.dir/cyanomethane_2275.chk
%nproc=8
%mem=16000MB
#p B2PLYPD3/Def2QZVP 

cyanomethane

0 1
C  -6.596779  -1.118626   1.160983
C  -5.202602  -0.797194   0.883630
N  -4.099135  -0.531570   0.715809
H  -6.766000  -1.208089   2.213361
H  -6.882209  -2.025552   0.766787
H  -7.131080  -0.327094   0.864673
