%chk=/home/boittier/MDCM/nms_sampling/cyanomethane_geom.xyz.dir/cyanomethane_1025.chk
%nproc=8
%mem=16000MB
#p B2PLYPD3/Def2QZVP 

cyanomethane

0 1
C  -6.598074  -1.110910   1.155966
C  -5.200564  -0.806121   0.913912
N  -4.089924  -0.529668   0.700230
H  -6.792421  -1.227820   2.254848
H  -6.878453  -1.997585   0.683943
H  -7.250167  -0.335463   0.831695
