%chk=/home/boittier/MDCM/nms_sampling/cyanomethane_geom.xyz.dir/cyanomethane_3161.chk
%nproc=8
%mem=16000MB
#p B2PLYPD3/Def2QZVP 

cyanomethane

0 1
C  -6.602080  -1.134396   1.155677
C  -5.200265  -0.722249   0.930606
N  -4.102451  -0.571150   0.691461
H  -6.751272  -1.284843   2.142525
H  -6.781658  -2.064923   0.687834
H  -7.163567  -0.337436   0.839213
