%chk=/home/boittier/MDCM/nms_sampling/cyanomethane_geom.xyz.dir/cyanomethane_181.chk
%nproc=8
%mem=16000MB
#p B2PLYPD3/Def2QZVP 

cyanomethane

0 1
C  -6.594489  -1.105346   1.165934
C  -5.202487  -0.822140   0.909985
N  -4.098961  -0.522711   0.701434
H  -6.742345  -1.196868   2.227383
H  -6.837250  -2.052558   0.685327
H  -7.234322  -0.289789   0.781716
