%chk=/home/boittier/MDCM/nms_sampling/cyanomethane_geom.xyz.dir/cyanomethane_3114.chk
%nproc=8
%mem=16000MB
#p B2PLYPD3/Def2QZVP 

cyanomethane

0 1
C  -6.607441  -1.111172   1.181062
C  -5.199528  -0.779669   0.942715
N  -4.079317  -0.540447   0.676479
H  -6.646806  -1.314949   2.172840
H  -7.033486  -2.002513   0.524355
H  -7.288495  -0.372546   0.754919

