%chk=/home/boittier/MDCM/nms_sampling/cyanomethane_geom.xyz.dir/cyanomethane_3473.chk
%nproc=8
%mem=16000MB
#p B2PLYPD3/Def2QZVP 

cyanomethane

0 1
C  -6.628430  -1.112149   1.173859
C  -5.197713  -0.777513   0.960642
N  -4.076303  -0.541426   0.665549
H  -6.524707  -1.272106   2.113677
H  -7.008199  -2.102741   0.617293
H  -7.242913  -0.321136   0.742177
