%chk=/home/boittier/MDCM/nms_sampling/cyanomethane_geom.xyz.dir/cyanomethane_1626.chk
%nproc=8
%mem=16000MB
#p B2PLYPD3/Def2QZVP 

cyanomethane

0 1
C  -6.608360  -1.104080   1.169762
C  -5.199259  -0.786925   0.922064
N  -4.084708  -0.539958   0.692674
H  -6.723325  -1.286884   2.200128
H  -6.900094  -2.101378   0.632256
H  -7.260102  -0.326725   0.780748
