%chk=/home/boittier/MDCM/nms_sampling/cyanomethane_geom.xyz.dir/cyanomethane_1279.chk
%nproc=8
%mem=16000MB
#p B2PLYPD3/Def2QZVP 

cyanomethane

0 1
C  -6.587977  -1.113160   1.162150
C  -5.204260  -0.760612   0.906255
N  -4.095863  -0.555790   0.704492
H  -6.817826  -1.254339   2.275674
H  -6.808977  -2.077204   0.666765
H  -7.288837  -0.383272   0.776065

