%chk=/home/boittier/MDCM/nms_sampling/cyanomethane_geom.xyz.dir/cyanomethane_3112.chk
%nproc=8
%mem=16000MB
#p B2PLYPD3/Def2QZVP 

cyanomethane

0 1
C  -6.601856  -1.115753   1.151420
C  -5.208700  -0.735385   0.926481
N  -4.092717  -0.569691   0.699303
H  -6.874833  -1.265901   2.271944
H  -6.658105  -2.150446   0.663987
H  -7.205984  -0.368225   0.745915
