%chk=/home/boittier/MDCM/nms_sampling/cyanomethane_geom.xyz.dir/cyanomethane_3074.chk
%nproc=8
%mem=16000MB
#p B2PLYPD3/Def2QZVP 

cyanomethane

0 1
C  -6.569109  -1.111548   1.175709
C  -5.206408  -0.867368   0.901469
N  -4.106115  -0.496785   0.702791
H  -6.723789  -1.071423   2.234548
H  -6.986971  -1.987998   0.711296
H  -7.262619  -0.245347   0.731108
