%chk=/home/boittier/MDCM/nms_sampling/cyanomethane_geom.xyz.dir/cyanomethane_1828.chk
%nproc=8
%mem=16000MB
#p B2PLYPD3/Def2QZVP 

cyanomethane

0 1
C  -6.583723  -1.130497   1.161031
C  -5.203498  -0.768910   0.936475
N  -4.099902  -0.547188   0.687466
H  -6.788479  -1.175116   2.192200
H  -6.886008  -2.027809   0.675873
H  -7.243712  -0.321538   0.747193
